============================[ Problem Statistics ]=============================|                                                                             ||  Number of variables:          4242                                         ||  Number of clauses:            9665                                         ||  Parse time:                   0.07 s                                       ||                                                                             |============================[ Search Statistics ]==============================| Conflicts |          ORIGINAL         |          LEARNT          | Progress ||           |    Vars  Clauses Literals |    Limit  Clauses Lit/Cl |          |==============================================================================================================================================================restarts              : 1conflicts             : 44             (449 /sec)decisions             : 128            (0.00 % random) (1306 /sec)propagations          : 8108           (82735 /sec)conflict literals     : 1798           (95.82 % deleted)CPU time              : 0.098 sSATISFIABLE